NAME : berlin52.tsp
TYPE : TOUR
DIMENSION : 52
TOUR_LENGTH : 8239.940953641613
TOUR_SECTION
1
22
31
18
3
17
21
23
20
50
16
46
44
34
35
36
39
40
38
37
48
24
5
15
6
4
25
12
28
27
26
47
14
13
52
11
51
33
43
10
9
8
41
19
45
32
49
29
30
42
7
2
-1
